CPLEX Parameter File Version 20.1.0.0
CPXPARAM_Parallel                                -1
CPXPARAM_MIP_Display                             4
CPXPARAM_Emphasis_MIP                            3
CPXPARAM_Advance                                 1
